C   -0.2440608417    0.3336263585    0.1109559984
N   -0.0715446555   -0.0068135192    1.5120518037
H    0.8113062211   -0.4485252644    1.6721701124
H   -0.1065200254    0.8064611044    2.0952024242
C   -1.7006909092    0.3820680511   -0.3302550135
N   -2.5995113415   -0.1380992438    0.5496724728
C   -3.9602419215   -0.4321860592    0.1626673624
C   -5.0163874237    0.2985093371    0.9816551454
O   -4.6159044979    1.389646418     1.6169980226
H   -3.6860651333    1.5257886276    1.4781178586
O   -6.1369903528   -0.0771496604    1.0226371469
H   -4.0908620468   -0.1389205365   -0.8697995305
H   -4.1718418843   -1.4901051739    0.2401417402
H   -2.2012086941   -0.6258087841    1.3240557774
O   -2.002619236     0.8473782309   -1.3918068951
H    0.20380613      1.2772207241   -0.184385333
H    0.2177837661   -0.4351472913   -0.4984380902

start h2o_opt
title "Water geometry optimization (B3LYP/cc-pVDZ)"
geometry units angstroms
C   -0.2440608417    0.3336263585    0.1109559984
N   -0.0715446555   -0.0068135192    1.5120518037
H    0.8113062211   -0.4485252644    1.6721701124
H   -0.1065200254    0.8064611044    2.0952024242
C   -1.7006909092    0.3820680511   -0.3302550135
N   -2.5995113415   -0.1380992438    0.5496724728
C   -3.9602419215   -0.4321860592    0.1626673624
C   -5.0163874237    0.2985093371    0.9816551454
O   -4.6159044979    1.389646418     1.6169980226
H   -3.6860651333    1.5257886276    1.4781178586
O   -6.1369903528   -0.0771496604    1.0226371469
H   -4.0908620468   -0.1389205365   -0.8697995305
H   -4.1718418843   -1.4901051739    0.2401417402
H   -2.2012086941   -0.6258087841    1.3240557774
O   -2.002619236     0.8473782309   -1.3918068951
H    0.20380613      1.2772207241   -0.184385333
H    0.2177837661   -0.4351472913   -0.4984380902
end

basis  
  * library cc-pvdz
end

dft
  xc b3lyp
end

task dft optimize